; Portuguese Bank dataset  (last_contact duration) column
; Flat column-slice encoding
; Column: last_contact duration

(set-logic ALL)

(declare-const O (Array Int Int))
(define-fun m () Int 100)

(assert (= (select O 0) 261))
(assert (= (select O 1) 151))
(assert (= (select O 2) 76))
(assert (= (select O 3) 92))
(assert (= (select O 4) 198))
(assert (= (select O 5) 139))
(assert (= (select O 6) 217))
(assert (= (select O 7) 380))
(assert (= (select O 8) 50))
(assert (= (select O 9) 55))
(assert (= (select O 10) 222))
(assert (= (select O 11) 137))
(assert (= (select O 12) 517))
(assert (= (select O 13) 71))
(assert (= (select O 14) 174))
(assert (= (select O 15) 353))
(assert (= (select O 16) 98))
(assert (= (select O 17) 38))
(assert (= (select O 18) 219))
(assert (= (select O 19) 54))
(assert (= (select O 20) 262))
(assert (= (select O 21) 164))
(assert (= (select O 22) 160))
(assert (= (select O 23) 342))
(assert (= (select O 24) 181))
(assert (= (select O 25) 172))
(assert (= (select O 26) 296))
(assert (= (select O 27) 127))
(assert (= (select O 28) 255))
(assert (= (select O 29) 348))
(assert (= (select O 30) 225))
(assert (= (select O 31) 230))
(assert (= (select O 32) 208))
(assert (= (select O 33) 226))
(assert (= (select O 34) 336))
(assert (= (select O 35) 242))
(assert (= (select O 36) 365))
(assert (= (select O 37) 1666))
(assert (= (select O 38) 577))
(assert (= (select O 39) 137))
(assert (= (select O 40) 160))
(assert (= (select O 41) 180))
(assert (= (select O 42) 22))
(assert (= (select O 43) 1492))
(assert (= (select O 44) 616))
(assert (= (select O 45) 242))
(assert (= (select O 46) 355))
(assert (= (select O 47) 225))
(assert (= (select O 48) 160))
(assert (= (select O 49) 363))
(assert (= (select O 50) 266))
(assert (= (select O 51) 253))
(assert (= (select O 52) 179))
(assert (= (select O 53) 787))
(assert (= (select O 54) 145))
(assert (= (select O 55) 174))
(assert (= (select O 56) 104))
(assert (= (select O 57) 13))
(assert (= (select O 58) 185))
(assert (= (select O 59) 1778))
(assert (= (select O 60) 138))
(assert (= (select O 61) 812))
(assert (= (select O 62) 164))
(assert (= (select O 63) 391))
(assert (= (select O 64) 357))
(assert (= (select O 65) 91))
(assert (= (select O 66) 528))
(assert (= (select O 67) 273))
(assert (= (select O 68) 158))
(assert (= (select O 69) 177))
(assert (= (select O 70) 258))
(assert (= (select O 71) 172))
(assert (= (select O 72) 154))
(assert (= (select O 73) 291))
(assert (= (select O 74) 181))
(assert (= (select O 75) 176))
(assert (= (select O 76) 211))
(assert (= (select O 77) 349))
(assert (= (select O 78) 272))
(assert (= (select O 79) 208))
(assert (= (select O 80) 193))
(assert (= (select O 81) 212))
(assert (= (select O 82) 20))
(assert (= (select O 83) 1042))
(assert (= (select O 84) 246))
(assert (= (select O 85) 529))
(assert (= (select O 86) 1467))
(assert (= (select O 87) 1389))
(assert (= (select O 88) 188))
(assert (= (select O 89) 180))
(assert (= (select O 90) 48))
(assert (= (select O 91) 213))
(assert (= (select O 92) 583))
(assert (= (select O 93) 221))
(assert (= (select O 94) 173))
(assert (= (select O 95) 426))
(assert (= (select O 96) 287))
(assert (= (select O 97) 101))
(assert (= (select O 98) 203))
(assert (= (select O 99) 197))

; ======================================
; Loop-like local range validity (m=100)
; Encoding: flat column slice
; Property: 0 <= duration < 5000
; ======================================

(assert
  (and
    (and (>= (select O 0) 0) (< (select O 0) 5000))
    (and (>= (select O 1) 0) (< (select O 1) 5000))
    (and (>= (select O 2) 0) (< (select O 2) 5000))
    (and (>= (select O 3) 0) (< (select O 3) 5000))
    (and (>= (select O 4) 0) (< (select O 4) 5000))
    (and (>= (select O 5) 0) (< (select O 5) 5000))
    (and (>= (select O 6) 0) (< (select O 6) 5000))
    (and (>= (select O 7) 0) (< (select O 7) 5000))
    (and (>= (select O 8) 0) (< (select O 8) 5000))
    (and (>= (select O 9) 0) (< (select O 9) 5000))
    (and (>= (select O 10) 0) (< (select O 10) 5000))
    (and (>= (select O 11) 0) (< (select O 11) 5000))
    (and (>= (select O 12) 0) (< (select O 12) 5000))
    (and (>= (select O 13) 0) (< (select O 13) 5000))
    (and (>= (select O 14) 0) (< (select O 14) 5000))
    (and (>= (select O 15) 0) (< (select O 15) 5000))
    (and (>= (select O 16) 0) (< (select O 16) 5000))
    (and (>= (select O 17) 0) (< (select O 17) 5000))
    (and (>= (select O 18) 0) (< (select O 18) 5000))
    (and (>= (select O 19) 0) (< (select O 19) 5000))
    (and (>= (select O 20) 0) (< (select O 20) 5000))
    (and (>= (select O 21) 0) (< (select O 21) 5000))
    (and (>= (select O 22) 0) (< (select O 22) 5000))
    (and (>= (select O 23) 0) (< (select O 23) 5000))
    (and (>= (select O 24) 0) (< (select O 24) 5000))
    (and (>= (select O 25) 0) (< (select O 25) 5000))
    (and (>= (select O 26) 0) (< (select O 26) 5000))
    (and (>= (select O 27) 0) (< (select O 27) 5000))
    (and (>= (select O 28) 0) (< (select O 28) 5000))
    (and (>= (select O 29) 0) (< (select O 29) 5000))
    (and (>= (select O 30) 0) (< (select O 30) 5000))
    (and (>= (select O 31) 0) (< (select O 31) 5000))
    (and (>= (select O 32) 0) (< (select O 32) 5000))
    (and (>= (select O 33) 0) (< (select O 33) 5000))
    (and (>= (select O 34) 0) (< (select O 34) 5000))
    (and (>= (select O 35) 0) (< (select O 35) 5000))
    (and (>= (select O 36) 0) (< (select O 36) 5000))
    (and (>= (select O 37) 0) (< (select O 37) 5000))
    (and (>= (select O 38) 0) (< (select O 38) 5000))
    (and (>= (select O 39) 0) (< (select O 39) 5000))
    (and (>= (select O 40) 0) (< (select O 40) 5000))
    (and (>= (select O 41) 0) (< (select O 41) 5000))
    (and (>= (select O 42) 0) (< (select O 42) 5000))
    (and (>= (select O 43) 0) (< (select O 43) 5000))
    (and (>= (select O 44) 0) (< (select O 44) 5000))
    (and (>= (select O 45) 0) (< (select O 45) 5000))
    (and (>= (select O 46) 0) (< (select O 46) 5000))
    (and (>= (select O 47) 0) (< (select O 47) 5000))
    (and (>= (select O 48) 0) (< (select O 48) 5000))
    (and (>= (select O 49) 0) (< (select O 49) 5000))
    (and (>= (select O 50) 0) (< (select O 50) 5000))
    (and (>= (select O 51) 0) (< (select O 51) 5000))
    (and (>= (select O 52) 0) (< (select O 52) 5000))
    (and (>= (select O 53) 0) (< (select O 53) 5000))
    (and (>= (select O 54) 0) (< (select O 54) 5000))
    (and (>= (select O 55) 0) (< (select O 55) 5000))
    (and (>= (select O 56) 0) (< (select O 56) 5000))
    (and (>= (select O 57) 0) (< (select O 57) 5000))
    (and (>= (select O 58) 0) (< (select O 58) 5000))
    (and (>= (select O 59) 0) (< (select O 59) 5000))
    (and (>= (select O 60) 0) (< (select O 60) 5000))
    (and (>= (select O 61) 0) (< (select O 61) 5000))
    (and (>= (select O 62) 0) (< (select O 62) 5000))
    (and (>= (select O 63) 0) (< (select O 63) 5000))
    (and (>= (select O 64) 0) (< (select O 64) 5000))
    (and (>= (select O 65) 0) (< (select O 65) 5000))
    (and (>= (select O 66) 0) (< (select O 66) 5000))
    (and (>= (select O 67) 0) (< (select O 67) 5000))
    (and (>= (select O 68) 0) (< (select O 68) 5000))
    (and (>= (select O 69) 0) (< (select O 69) 5000))
    (and (>= (select O 70) 0) (< (select O 70) 5000))
    (and (>= (select O 71) 0) (< (select O 71) 5000))
    (and (>= (select O 72) 0) (< (select O 72) 5000))
    (and (>= (select O 73) 0) (< (select O 73) 5000))
    (and (>= (select O 74) 0) (< (select O 74) 5000))
    (and (>= (select O 75) 0) (< (select O 75) 5000))
    (and (>= (select O 76) 0) (< (select O 76) 5000))
    (and (>= (select O 77) 0) (< (select O 77) 5000))
    (and (>= (select O 78) 0) (< (select O 78) 5000))
    (and (>= (select O 79) 0) (< (select O 79) 5000))
    (and (>= (select O 80) 0) (< (select O 80) 5000))
    (and (>= (select O 81) 0) (< (select O 81) 5000))
    (and (>= (select O 82) 0) (< (select O 82) 5000))
    (and (>= (select O 83) 0) (< (select O 83) 5000))
    (and (>= (select O 84) 0) (< (select O 84) 5000))
    (and (>= (select O 85) 0) (< (select O 85) 5000))
    (and (>= (select O 86) 0) (< (select O 86) 5000))
    (and (>= (select O 87) 0) (< (select O 87) 5000))
    (and (>= (select O 88) 0) (< (select O 88) 5000))
    (and (>= (select O 89) 0) (< (select O 89) 5000))
    (and (>= (select O 90) 0) (< (select O 90) 5000))
    (and (>= (select O 91) 0) (< (select O 91) 5000))
    (and (>= (select O 92) 0) (< (select O 92) 5000))
    (and (>= (select O 93) 0) (< (select O 93) 5000))
    (and (>= (select O 94) 0) (< (select O 94) 5000))
    (and (>= (select O 95) 0) (< (select O 95) 5000))
    (and (>= (select O 96) 0) (< (select O 96) 5000))
    (and (>= (select O 97) 0) (< (select O 97) 5000))
    (and (>= (select O 98) 0) (< (select O 98) 5000))
    (and (>= (select O 99) 0) (< (select O 99) 5000))
  )
)

(check-sat)
